job_count = 34 ;
duration = [|4, 3|18, 3|9, 6|15, 1|13, 8|15, 9|14, 8|16, 6|12, 3|13, 4|6, 6|13, 9|11, 5|7, 4|15, 2|11, 4|4, 6|11, 5|10, 8|13, 4|19, 3|12, 9|13, 7|10, 8|18, 6|9, 8|5, 5|10, 2|17, 7|4, 6|10, 9|6, 3|18, 4|3, 9|] ;
machine_count = 2 ;
cost = [|11, 32|17, 35|10, 31|16, 38|13, 24|16, 28|19, 25|14, 34|19, 24|17, 25|10, 35|14, 26|15, 37|14, 23|18, 23|15, 30|18, 32|11, 21|12, 31|10, 35|12, 39|11, 23|17, 37|18, 26|17, 25|14, 30|10, 30|12, 22|11, 38|12, 30|14, 35|12, 28|13, 37|12, 35|] ;
deadline = [85, 85, 85, 85, 85, 85, 85, 85, 85, 85, 85, 85, 85, 85, 85, 85, 85, 85, 85, 85, 85, 85, 85, 85, 85, 85, 85, 85, 85, 85, 85, 85, 85, 85] ;
release = [0, 0, 0, 0, 0, 0, 0, 0, 0, 0, 0, 0, 0, 0, 0, 0, 0, 0, 0, 0, 0, 0, 0, 0, 0, 0, 0, 0, 0, 0, 0, 0, 0, 0] ;
resource = [|5, 5|7, 7|4, 4|9, 9|6, 6|9, 9|5, 5|2, 2|7, 7|1, 1|5, 5|3, 3|4, 4|3, 3|9, 9|9, 9|5, 5|5, 5|7, 7|4, 4|8, 8|4, 4|4, 4|5, 5|3, 3|7, 7|5, 5|8, 8|1, 1|8, 8|1, 1|4, 4|3, 3|2, 2|] ;
capacities = [10, 10] ;
